NAME : d657.22498.tour
COMMENT : Length = 22498
COMMENT : Found by LKH [Keld Helsgaun] Sat May 25 06:44:53 2013
TYPE : TOUR
DIMENSION : 132
TOUR_SECTION
1
3
4
65
80
102
129
164
238
232
221
219
218
200
205
158
120
140
150
122
113
81
76
83
84
492
497
506
507
176
189
234
275
284
314
329
313
306
312
243
228
248
252
255
293
310
304
324
318
346
391
410
422
416
398
389
431
402
406
411
413
418
412
419
384
382
355
361
623
621
625
620
622
615
612
600
591
588
580
657
656
655
628
650
648
644
637
632
546
553
565
572
577
578
583
590
599
307
298
297
266
214
206
183
174
512
568
557
552
543
540
536
524
523
517
518
520
478
476
460
461
459
463
442
446
24
27
49
41
29
25
12
-1
EOF
